FILENAME:   /home/mcs001/s132664/testsets/IP/miplib2017/fastxgemm-n3r21s3t6.mps.gz
SETTINGS:   settings_final_nopeek_norelabel_extend_norestarts
TIMELIMIT:  7200
OUTPUTNAME: final_miplib_symretope_if_extended_generating_set_cpx_v802__settings_final_nopeek_norelabel_extend_norestarts__2__
BINNAME:    bin/sbcs.linux.x86_64.gnu.opt.cpx
BASENAME:   fastxgemm-n3r21s3t6.mps.gz
SEED:       2
@01 /home/mcs001/s132664/testsets/IP/miplib2017/fastxgemm-n3r21s3t6.mps.gz ===========
@02 fastxgemm-n3r21s3t6.mps.gz
@03 1686656704
SCIP version 8.0.2 [precision: 8 byte] [memory: block] [mode: optimized] [LP solver: CPLEX 20.1.0.0] [GitHash: 5f0473c]
Copyright (C) 2002-2022 Konrad-Zuse-Zentrum fuer Informationstechnik Berlin (ZIB)

Symretope propagation methods - (c) Jasper van Doornmalen, Christopher Hojny.
[GitHash: 2fd0484]

reading parameter file <../settings/settings_final_nopeek_norelabel_extend_norestarts.set> ...

Changed settings:
limits/time = 7200
limits/restarts = 0
misc/usesymmetry = 1
randomization/randomseedshift = 2
constraints/orbisack/sepafreq = -1
constraints/symresack/sepafreq = -1
propagating/symmetry/addsymresacks = TRUE
propagating/symmetry/detectsubgroups = FALSE
propagating/symmetry/relabelsymretopes = 0
propagating/symmetry/extendgenerators = TRUE
propagating/symmetry/ofsymcomptiming = 0
constraints/symretope/sepafreq = -1
constraints/symretope/peek = FALSE


solving problem ...

original problem has 18684 variables (378 bin, 0 int, 0 impl, 18306 cont) and 219368 constraints
presolving:
(round 1, exhaustive) 0 del vars, 61236 del conss, 0 add conss, 0 chg bounds, 0 chg sides, 0 chg coeffs, 0 upgd conss, 0 impls, 189 clqs
(round 2, exhaustive) 0 del vars, 61236 del conss, 0 add conss, 0 chg bounds, 0 chg sides, 0 chg coeffs, 93646 upgd conss, 0 impls, 189 clqs
(round 3, exhaustive) 25 del vars, 61236 del conss, 0 add conss, 0 chg bounds, 0 chg sides, 0 chg coeffs, 93646 upgd conss, 2322 impls, 1070 clqs
(round 4, exhaustive) 50 del vars, 61333 del conss, 0 add conss, 0 chg bounds, 0 chg sides, 0 chg coeffs, 93646 upgd conss, 2322 impls, 1012 clqs
(round 5, medium)     50 del vars, 61462 del conss, 0 add conss, 0 chg bounds, 0 chg sides, 0 chg coeffs, 93646 upgd conss, 2322 impls, 1012 clqs
(round 6, exhaustive) 75 del vars, 61462 del conss, 0 add conss, 0 chg bounds, 0 chg sides, 0 chg coeffs, 93646 upgd conss, 2322 impls, 954 clqs
(round 7, exhaustive) 100 del vars, 61575 del conss, 0 add conss, 0 chg bounds, 0 chg sides, 0 chg coeffs, 93646 upgd conss, 2322 impls, 896 clqs
(round 8, medium)     100 del vars, 61720 del conss, 0 add conss, 0 chg bounds, 0 chg sides, 0 chg coeffs, 93646 upgd conss, 2322 impls, 896 clqs
(round 9, exhaustive) 125 del vars, 61720 del conss, 0 add conss, 0 chg bounds, 0 chg sides, 0 chg coeffs, 93646 upgd conss, 2322 impls, 838 clqs
(round 10, medium)     125 del vars, 61849 del conss, 0 add conss, 0 chg bounds, 0 chg sides, 0 chg coeffs, 93646 upgd conss, 2322 impls, 838 clqs
(round 11, exhaustive) 150 del vars, 61849 del conss, 0 add conss, 0 chg bounds, 0 chg sides, 0 chg coeffs, 93646 upgd conss, 2322 impls, 782 clqs
(round 12, exhaustive) 175 del vars, 61944 del conss, 0 add conss, 0 chg bounds, 0 chg sides, 0 chg coeffs, 93646 upgd conss, 2322 impls, 726 clqs
(round 13, exhaustive) 200 del vars, 62039 del conss, 0 add conss, 0 chg bounds, 0 chg sides, 0 chg coeffs, 93646 upgd conss, 2322 impls, 666 clqs
(round 14, medium)     200 del vars, 62234 del conss, 0 add conss, 0 chg bounds, 0 chg sides, 0 chg coeffs, 93646 upgd conss, 2322 impls, 666 clqs
(round 15, exhaustive) 225 del vars, 62234 del conss, 0 add conss, 0 chg bounds, 0 chg sides, 0 chg coeffs, 93646 upgd conss, 2322 impls, 710 clqs
(round 16, exhaustive) 250 del vars, 62311 del conss, 0 add conss, 0 chg bounds, 0 chg sides, 0 chg coeffs, 93646 upgd conss, 2322 impls, 652 clqs
(round 17, exhaustive) 275 del vars, 62408 del conss, 0 add conss, 0 chg bounds, 0 chg sides, 0 chg coeffs, 93646 upgd conss, 2322 impls, 596 clqs
(round 18, exhaustive) 300 del vars, 62505 del conss, 0 add conss, 0 chg bounds, 0 chg sides, 0 chg coeffs, 93646 upgd conss, 2322 impls, 534 clqs
(round 19, medium)     300 del vars, 62721 del conss, 0 add conss, 0 chg bounds, 0 chg sides, 0 chg coeffs, 93646 upgd conss, 2322 impls, 534 clqs
(round 20, exhaustive) 325 del vars, 62721 del conss, 0 add conss, 0 chg bounds, 0 chg sides, 0 chg coeffs, 93646 upgd conss, 2322 impls, 518 clqs
(round 21, medium)     325 del vars, 62892 del conss, 0 add conss, 0 chg bounds, 0 chg sides, 0 chg coeffs, 93646 upgd conss, 2322 impls, 518 clqs
(round 22, exhaustive) 350 del vars, 62892 del conss, 0 add conss, 0 chg bounds, 0 chg sides, 0 chg coeffs, 93646 upgd conss, 2322 impls, 462 clqs
(round 23, exhaustive) 375 del vars, 63017 del conss, 0 add conss, 0 chg bounds, 0 chg sides, 0 chg coeffs, 93646 upgd conss, 2322 impls, 438 clqs
   (18.6s) probing cycle finished: starting next cycle
   (23.4s) symmetry computation started: requiring (bin +, int +, cont +), (fixed: bin -, int -, cont -)
   (26.2s) symmetry computation finished: 6 generators found (max: 1500, log10 of symmetry group size: 6.2)
presolving (24 rounds: 24 fast, 24 medium, 18 exhaustive):
 378 deleted vars, 63070 deleted constraints, 14 added constraints, 0 tightened bounds, 0 added holes, 0 changed sides, 0 changed coefficients
 3456 implications, 432 cliques
presolved problem has 18306 variables (378 bin, 0 int, 756 impl, 17172 cont) and 156312 constraints
  91584 constraints of type <varbound>
      1 constraints of type <knapsack>
    192 constraints of type <setppc>
  64486 constraints of type <linear>
      8 constraints of type <orbisack>
      5 constraints of type <symretope>
     36 constraints of type <logicor>
Presolving Time: 25.74

 time | node  | left  |LP iter|LP it/n|mem/heur|mdpt |vars |cons |rows |cuts |sepa|confs|strbr|  dualbound   | primalbound  |  gap   | compl. 
p28.0s|     1 |     0 |     0 |     - |shiftand|   0 |  18k| 156k| 156k|   0 |  0 |   3 |   0 | 0.000000e+00 | 6.708400e+04 |    Inf | unknown
 42.1s|     1 |     0 |  8425 |     - |   755M |   0 |  18k| 156k| 156k|   0 |  0 |   3 |   0 | 8.400000e+01 | 6.708400e+04 |  Large | unknown
 44.4s|     1 |     0 |  8552 |     - |   780M |   0 |  18k| 156k| 156k|   8 |  1 |   3 |   0 | 8.400000e+01 | 6.708400e+04 |  Large | unknown
 46.2s|     1 |     0 |  8663 |     - |   797M |   0 |  18k| 156k| 156k|   9 |  2 |   3 |   0 | 8.400000e+01 | 6.708400e+04 |  Large | unknown
 48.0s|     1 |     0 |  8767 |     - |   818M |   0 |  18k| 156k| 156k|  10 |  3 |   3 |   0 | 8.400000e+01 | 6.708400e+04 |  Large | unknown
 50.3s|     1 |     0 |  8897 |     - |   835M |   0 |  18k| 156k| 156k|  11 |  4 |   3 |   0 | 8.400000e+01 | 6.708400e+04 |  Large | unknown
 52.1s|     1 |     0 |  8999 |     - |   855M |   0 |  18k| 156k| 156k|  13 |  5 |   3 |   0 | 8.400000e+01 | 6.708400e+04 |  Large | unknown
 54.3s|     1 |     0 |  9129 |     - |   876M |   0 |  18k| 156k| 156k|  14 |  6 |   3 |   0 | 8.400000e+01 | 6.708400e+04 |  Large | unknown
 56.6s|     1 |     0 |  9263 |     - |   893M |   0 |  18k| 156k| 156k|  15 |  7 |   3 |   0 | 8.400000e+01 | 6.708400e+04 |  Large | unknown
 59.4s|     1 |     0 |  9466 |     - |   913M |   0 |  18k| 156k| 156k|  16 |  8 |   4 |   0 | 8.400000e+01 | 6.708400e+04 |  Large | unknown
 61.8s|     1 |     0 |  9588 |     - |   936M |   0 |  18k| 156k| 156k|  18 |  9 |   4 |   0 | 8.400000e+01 | 6.708400e+04 |  Large | unknown
 64.9s|     1 |     0 |  9804 |     - |   956M |   0 |  18k| 156k| 156k|  19 | 10 |   4 |   0 | 8.400000e+01 | 6.708400e+04 |  Large | unknown
 74.0s|     1 |     0 |  9923 |     - |   973M |   0 |  18k| 156k| 156k|  20 | 11 |   4 |   0 | 8.400000e+01 | 6.708400e+04 |  Large | unknown
L 835s|     1 |     0 | 66009 |     - |    alns|   0 |  18k| 156k| 156k|  20 | 11 |  23 |   0 | 8.400000e+01 | 5.909000e+04 |  Large | unknown
L 835s|     1 |     0 | 66009 |     - |    alns|   0 |  18k| 156k| 156k|  20 | 11 |  23 |   0 | 8.400000e+01 | 5.909000e+04 |  Large | unknown
 time | node  | left  |LP iter|LP it/n|mem/heur|mdpt |vars |cons |rows |cuts |sepa|confs|strbr|  dualbound   | primalbound  |  gap   | compl. 
  836s|     1 |     0 | 66009 |     - |   988M |   0 |  18k| 156k| 156k|  20 | 11 |  23 |   0 | 8.400000e+01 | 5.909000e+04 |  Large | unknown
  956s|     1 |     2 | 66009 |     - |  1005M |   0 |  18k| 156k| 156k|  20 | 13 |  23 |  20 | 8.400000e+01 | 5.909000e+04 |  Large | unknown
L1129s|    41 |    42 | 82308 |1809.6 |    alns|  40 |  18k| 156k| 156k|  33 |  2 |  23 |  20 | 8.400000e+01 | 5.009600e+04 |  Large | unknown
 1508s|   100 |   101 |121439 |1126.4 |  1075M |  99 |  18k| 156k| 156k|  33 |  1 |  23 |  20 | 8.400000e+01 | 5.009600e+04 |  Large | unknown
L1510s|   101 |   102 |121534 |1116.1 |    alns| 100 |  18k| 156k| 156k|  33 |  1 |  23 |  20 | 8.400000e+01 | 4.108401e+04 |  Large | unknown
L1510s|   101 |   102 |121534 |1116.1 |    alns| 100 |  18k| 156k| 156k|  33 |  1 |  23 |  20 | 8.400000e+01 | 4.108400e+04 |  Large | unknown
L1510s|   101 |   102 |121534 |1116.1 |    alns| 100 |  18k| 156k| 156k|  33 |  1 |  23 |  20 | 8.400000e+01 | 3.808700e+04 |  Large | unknown

SCIP Status        : solving was interrupted [time limit reached]
Solving Time (sec) : 7200.01
Solving Nodes      : 176
Primal Bound       : +3.80870000000000e+04 (8 solutions)
Dual Bound         : +8.40000000000002e+01
Gap                : 45241.67 %
SCIP Status        : solving was interrupted [time limit reached]
Total Time         :    7201.07
  solving          :    7200.01
  presolving       :      25.74 (included in solving)
  reading          :       1.06
  copying          :       1.82 (5 #copies) (minimal 0.35, maximal 0.38, average 0.36)
Original Problem   :
  Problem name     : fastxgemm-n3r21s3t6
  Variables        : 18684 (378 binary, 0 integer, 0 implicit integer, 18306 continuous)
  Constraints      : 219368 initial, 219368 maximal
  Objective        : minimize, 1863 non-zeros (abs.min = 0.001, abs.max = 1000)
Presolved Problem  :
  Problem name     : t_fastxgemm-n3r21s3t6
  Variables        : 18306 (378 binary, 0 integer, 756 implicit integer, 17172 continuous)
  Constraints      : 156312 initial, 156338 maximal
  Objective        : minimize, 1863 non-zeros (abs.min = 0.001, abs.max = 1000)
  Nonzeros         : 469737 constraint, 1053 clique table
Presolvers         :   ExecTime  SetupTime  Calls  FixedVars   AggrVars   ChgTypes  ChgBounds   AddHoles    DelCons    AddCons   ChgSides   ChgCoefs
  boundshift       :       0.00       0.00      0          0          0          0          0          0          0          0          0          0
  convertinttobin  :       0.00       0.00      0          0          0          0          0          0          0          0          0          0
  domcol           :       2.26       0.00     16          0          0          0          0          0          0          0          0          0
  dualagg          :       0.00       0.00      0          0          0          0          0          0          0          0          0          0
  dualcomp         :       2.10       0.00     16          0          0          0          0          0          0          0          0          0
  dualinfer        :       0.00       0.00      0          0          0          0          0          0          0          0          0          0
  dualsparsify     :       1.46       0.00      1          0          0          0          0          0          0          0          0          0
  gateextraction   :       0.00       0.00     16          0          0          0          0          0          0          0          0          0
  implics          :       0.00       0.00     24          0          0          0          0          0          0          0          0          0
  inttobinary      :       0.00       0.00      0          0          0          0          0          0          0          0          0          0
  qpkktref         :       0.00       0.00      0          0          0          0          0          0          0          0          0          0
  redvub           :       0.00       0.00      0          0          0          0          0          0          0          0          0          0
  sparsify         :       0.94       0.00      4          0          0          0          0          0          0          0          0          0
  stuffing         :       0.00       0.00      0          0          0          0          0          0          0          0          0          0
  trivial          :       0.01       0.00     24          0          0          0          0          0          0          0          0          0
  tworowbnd        :       0.00       0.00      0          0          0          0          0          0          0          0          0          0
  dualfix          :       0.02       0.00     24          0          0          0          0          0          0          0          0          0
  genvbounds       :       0.00       0.00      0          0          0          0          0          0          0          0          0          0
  probing          :       9.93       0.00     16          0        378          0          0          0          0          0          0          0
  pseudoobj        :       0.00       0.00      0          0          0          0          0          0          0          0          0          0
  symmetry         :       2.77       0.00      1          0          0          0          0          0          1         14          0          0
  vbounds          :       0.00       0.00      5          0          0          0          0          0          0          0          0          0
  varbound         :       1.35       0.00     44          0          0          0          0          0       1404          0          0          0
  knapsack         :       0.01       0.00     60          0          0          0          0          0          0          0          0          0
  setppc           :       0.02       0.00     60          0          0          0          0          0        375          0          0          0
  linear           :       4.49       0.15     42          0          0          0          0          0      61236          0          0          0
  orbisack         :       0.00       0.00      0          0          0          0          0          0          0          0          0          0
  symretope        :       0.00       0.00      0          0          0          0          0          0          0          0          0          0
  logicor          :       0.02       0.00     60          0          0          0          0          0         54          0          0          0
  bounddisjunction :       0.00       0.00      0          0          0          0          0          0          0          0          0          0
  benders          :       0.00       0.00      0          0          0          0          0          0          0          0          0          0
  components       :       0.09       0.00      1          0          0          0          0          0          0          0          0          0
  root node        :          -          -      -          0          -          -          0          -          -          -          -          -
Constraints        :     Number  MaxNumber  #Separate #Propagate    #EnfoLP    #EnfoRelax  #EnfoPS    #Check   #ResProp    Cutoffs    DomReds       Cuts    Applied      Conss   Children
  benderslp        :          0          0          0          0        258          0          0         55          0          0          0          0          0          0          0
  integral         :          0          0          0          0        258          0          0         55          0          0       1680          0          0          2        350
  varbound         :      91584      91584         12      12454          0          0          0         12          0          0          0          0          0          0          0
  knapsack         :          1          1         12       9425          0          0          0         11          0          0          0          0          0          0          0
  setppc           :        192        192         12      12453          0          0          0         10        104          0        137          0          0          0          0
  linear           :      64486      64486         12      12455          0          0          0          8         62         12       2222          0          0          0          0
  orbisack         :          8          8          0         84          0          0          0          8         36          2          3          0          0          0          0
  symretope        :          5          5          0        264          0          0          0          8          9          0          9          0          0          0          0
  logicor          :         36+        59         12       1071          0          0          0          8          3          1          0          0          0          0          0
  bounddisjunction :          0+         3          0         13          0          0          0          0          0          0          0          0          0          0          0
  benders          :          0          0          0          0          0          0          0          9          0          0          0          0          0          0          0
  countsols        :          0          0          0          0          0          0          0          9          0          0          0          0          0          0          0
  components       :          0          0          0          0          0          0          0          0          0          0          0          0          0          0          0
Constraint Timings :  TotalTime  SetupTime   Separate  Propagate     EnfoLP     EnfoPS     EnfoRelax   Check    ResProp    SB-Prop
  benderslp        :       0.00       0.00       0.00       0.00       0.00       0.00       0.00       0.00       0.00       0.00
  integral         :    2511.65       0.00       0.00       0.00    2511.65       0.00       0.00       0.00       0.00       0.00
  varbound         :       2.55       0.00       0.49       1.83       0.00       0.00       0.00       0.14       0.00       0.09
  knapsack         :       0.04       0.00       0.01       0.03       0.00       0.00       0.00       0.00       0.00       0.00
  setppc           :       0.65       0.00       0.00       0.55       0.00       0.00       0.00       0.00       0.00       0.10
  linear           :       4.47       0.15       0.22       3.44       0.00       0.00       0.00       0.21       0.00       0.45
  orbisack         :       0.01       0.00       0.00       0.00       0.00       0.00       0.00       0.00       0.00       0.00
  symretope        :       0.00       0.00       0.00       0.00       0.00       0.00       0.00       0.00       0.00       0.00
  logicor          :       0.01       0.00       0.00       0.01       0.00       0.00       0.00       0.00       0.00       0.00
  bounddisjunction :       0.00       0.00       0.00       0.00       0.00       0.00       0.00       0.00       0.00       0.00
  benders          :       0.00       0.00       0.00       0.00       0.00       0.00       0.00       0.00       0.00       0.00
  countsols        :       0.00       0.00       0.00       0.00       0.00       0.00       0.00       0.00       0.00       0.00
  components       :       0.00       0.00       0.00       0.00       0.00       0.00       0.00       0.00       0.00       0.00
Propagators        : #Propagate   #ResProp    Cutoffs    DomReds
  dualfix          :          3          0          0          0
  genvbounds       :          0          0          0          0
  nlobbt           :          0          0          0          0
  obbt             :          0          0          0          0
  probing          :          0          0          0          0
  pseudoobj        :        813          0          0          0
  redcost          :        543          0          0          0
  rootredcost      :          3          0          0          0
  symmetry         :          0          0          0          0
  vbounds          :       5499         49          0      13581
Propagator Timings :  TotalTime  SetupTime   Presolve  Propagate    ResProp    SB-Prop
  dualfix          :       0.03       0.00       0.02       0.00       0.00       0.00
  genvbounds       :       0.00       0.00       0.00       0.00       0.00       0.00
  nlobbt           :       0.00       0.00       0.00       0.00       0.00       0.00
  obbt             :       0.00       0.00       0.00       0.00       0.00       0.00
  probing          :       9.93       0.00       9.93       0.00       0.00       0.00
  pseudoobj        :       0.02       0.00       0.00       0.02       0.00       0.00
  redcost          :       0.31       0.00       0.00       0.31       0.00       0.00
  rootredcost      :       0.00       0.00       0.00       0.00       0.00       0.00
  symmetry         :       2.78       0.00       2.77       0.00       0.00       0.00
  vbounds          :       0.50       0.00       0.00       0.38       0.00       0.11
Orbital fixing     :
  vars fixed to 0  :          0
  vars fixed to 1  :          0
Conflict Analysis  :       Time      Calls    Success    DomReds  Conflicts   Literals    Reconvs ReconvLits   Dualrays   Nonzeros   LP Iters   (pool size: [10000,10000])
  propagation      :       0.00          5          5          -         66       36.4          1       32.0          -          -          -
  infeasible LP    :       0.00          2          0          -          0        0.0          0        0.0          0        0.0          0
  bound exceed. LP :       0.32          2          0          -          0        0.0          0        0.0          0        0.0         20
  strong branching :       0.00          0          0          -          0        0.0          0        0.0          -          -          0
  pseudo solution  :       0.00          0          0          -          0        0.0          0        0.0          -          -          -
  applied globally :       0.00          -          -          0         25       23.0          -          -          0          -          -
  applied locally  :          -          -          -          0          0        0.0          -          -          0          -          -
Separators         :   ExecTime  SetupTime      Calls  RootCalls    Cutoffs    DomReds  FoundCuts ViaPoolAdd  DirectAdd    Applied ViaPoolApp  DirectApp      Conss
  cut pool         :       0.25          -         74         21          -          -       2614       2581          -          -          -          -          -    (maximal pool size:       2614)
  aggregation      :       2.98       0.00         33         12          0          0          0          0          0          0          0          0          0
  > cmir           :          -          -          -          -          -          -          -          0          0          0          0          0          -
  > flowcover      :          -          -          -          -          -          -          -          0          0          0          0          0          -
  > knapsackcover  :          -          -          -          -          -          -          -          0          0          0          0          0          -
  cgmip            :       0.00       0.00          0          0          0          0          0          0          0          0          0          0          0
  clique           :       0.00       0.00         12         12          0          0          0          0          0          0          0          0          0
  closecuts        :       0.00       0.00          0          0          0          0          0          0          0          0          0          0          0
  convexproj       :       0.00       0.00          0          0          0          0          0          0          0          0          0          0          0
  disjunctive      :       0.00       0.00          0          0          0          0          0          0          0          0          0          0          0
  eccuts           :       0.00       0.00          0          0          0          0          0          0          0          0          0          0          0
  gauge            :       0.00       0.00          0          0          0          0          0          0          0          0          0          0          0
  gomory           :       6.96       0.00         19         10          0          0       2316       2160          0         28         28          0          0
  > gomorymi       :          -          -          -          -          -          -          -       2160          0         28         28          0          -
  > strongcg       :          -          -          -          -          -          -          -          0          0          0          0          0          -
  impliedbounds    :       0.04       0.00         33         12          0          0        278        400          0        219        219          0          0
  interminor       :       0.00       0.00          0          0          0          0          0          0          0          0          0          0          0
  intobj           :       0.00       0.00          0          0          0          0          0          0          0          0          0          0          0
  mcf              :       0.14       0.00          1          1          0          0          0          0          0          0          0          0          0
  minor            :       0.00       0.00          0          0          0          0          0          0          0          0          0          0          0
  mixing           :       0.37       0.00         33         12          0          0         20         21          0         17         17          0          0
  oddcycle         :       0.00       0.00          0          0          0          0          0          0          0          0          0          0          0
  rapidlearning    :       0.00       0.00          0          0          0          0          0          0          0          0          0          0          0
  rlt              :       0.00       0.00         10         10          0          0          0          0          0          0          0          0          0
  zerohalf         :       0.83       0.00         21         12          0          0          0          0          0          0          0          0          0
Cutselectors       :   ExecTime  SetupTime      Calls  RootCalls   Selected     Forced   Filtered  RootSelec   RootForc   RootFilt 
  hybrid           :       0.01       0.00         25         11        264          0       2317         20          0       1956
Pricers            :   ExecTime  SetupTime      Calls       Vars
  problem variables:       0.00          -          0          0
Branching Rules    :   ExecTime  SetupTime   BranchLP  BranchExt   BranchPS    Cutoffs    DomReds       Cuts      Conss   Children
  allfullstrong    :       0.00       0.00          0          0          0          0          0          0          0          0
  cloud            :       0.00       0.00          0          0          0          0          0          0          0          0
  distribution     :       0.00       0.00          0          0          0          0          0          0          0          0
  fullstrong       :       0.00       0.00          0          0          0          0          0          0          0          0
  inference        :       0.00       0.00          0          0          0          0          0          0          0          0
  leastinf         :       0.00       0.00          0          0          0          0          0          0          0          0
  lookahead        :       0.00       0.00          0          0          0          0          0          0          0          0
  mostinf          :       0.00       0.00          0          0          0          0          0          0          0          0
  multaggr         :       0.00       0.00          0          0          0          0          0          0          0          0
  nodereopt        :       0.00       0.00          0          0          0          0          0          0          0          0
  pscost           :       0.00       0.00          0          0          0          0          0          0          0          0
  random           :       0.00       0.00          0          0          0          0          0          0          0          0
  relpscost        :    2511.65       0.00        258          0          0          0       1680          0          2        350
  vanillafullstrong:       0.00       0.00          0          0          0          0          0          0          0          0
Primal Heuristics  :   ExecTime  SetupTime      Calls      Found       Best
  LP solutions     :       0.00          -          -          0          0
  relax solutions  :       0.00          -          -          0          0
  pseudo solutions :       0.00          -          -          0          0
  strong branching :       0.00          -          -          0          0
  actconsdiving    :       0.00       0.00          0          0          0
  adaptivediving   :       0.00       0.00          0          0          0
  alns             :       7.68       0.00          4          7          6
  bound            :       0.00       0.00          0          0          0
  clique           :       0.64       0.00          1          0          0
  coefdiving       :       0.00       0.00          0          0          0
  completesol      :       0.00       0.00          0          0          0
  conflictdiving   :     492.95       0.00          1          0          0
  crossover        :       0.00       0.00          0          0          0
  dins             :       0.00       0.00          0          0          0
  distributiondivin:       0.01       0.00          0          0          0
  dps              :       0.00       0.00          0          0          0
  dualval          :       0.00       0.00          0          0          0
  farkasdiving     :       0.00       0.00          0          0          0
  feaspump         :     154.33       0.00          1          0          0
  fixandinfer      :       0.00       0.00          0          0          0
  fracdiving       :       0.00       0.00          0          0          0
  gins             :       0.00       0.00          0          0          0
  guideddiving     :       0.00       0.00          0          0          0
  indicator        :       0.00       0.00          0          0          0
  intdiving        :       0.00       0.00          0          0          0
  intshifting      :     276.36       0.00          2          0          0
  linesearchdiving :       0.00       0.00          0          0          0
  localbranching   :       0.00       0.00          0          0          0
  locks            :       0.34       0.00          1          0          0
  lpface           :       0.01       0.00          0          0          0
  mpec             :       0.00       0.00          0          0          0
  multistart       :       0.00       0.00          0          0          0
  mutation         :       0.00       0.00          0          0          0
  nlpdiving        :       0.00       0.00          0          0          0
  objpscostdiving  :       0.00       0.00          0          0          0
  octane           :       0.00       0.00          0          0          0
  ofins            :       0.00       0.00          0          0          0
  oneopt           :       0.12       0.00          4          0          0
  padm             :       0.00       0.00          0          0          0
  proximity        :       0.00       0.00          0          0          0
  pscostdiving     :     290.91       0.00          1          0          0
  randrounding     :       3.31       0.00         38          0          0
  rens             :       2.49       0.00          1          0          0
  reoptsols        :       0.00       0.00          0          0          0
  repair           :       0.00       0.00          0          0          0
  rins             :       0.00       0.00          0          0          0
  rootsoldiving    :       0.00       0.00          0          0          0
  rounding         :       1.31       0.00        177          0          0
  shiftandpropagate:       0.77       0.00          1          1          1
  shifting         :      10.79       0.00         55          0          0
  simplerounding   :       0.00       0.00          0          0          0
  subnlp           :       0.00       0.00          0          0          0
  trivial          :       0.09       0.00          2          0          0
  trivialnegation  :       0.00       0.00          0          0          0
  trustregion      :       0.00       0.00          0          0          0
  trysol           :       0.00       0.00          0          0          0
  twoopt           :       0.00       0.00          0          0          0
  undercover       :       0.00       0.00          0          0          0
  vbounds          :       0.01       0.00          0          0          0
  veclendiving     :       0.00       0.00          0          0          0
  zeroobj          :       0.00       0.00          0          0          0
  zirounding       :       1.93       0.00        175          0          0
  other solutions  :          -          -          -          0          -
LP                 :       Time      Calls Iterations  Iter/call   Iter/sec  Time-0-It Calls-0-It    ItLimit
  primal LP        :      40.45          6          0       0.00       0.00      40.45          6
  dual LP          :    3358.60        283     476454    1825.49     141.86       0.42         22
  lex dual LP      :       0.00          0          0       0.00          -
  barrier LP       :       0.00          0          0       0.00          -       0.00          0
  resolve instable :       0.00          0          0       0.00          -
  diving/probing LP:    1226.19         18     118285    6571.39      96.47
  strong branching :    2491.59        379     351026     926.19     140.88          -          -        649
    (at root node) :          -         20      12156     607.80          -
  conflict analysis:       0.27          2         20      10.00      73.05
B&B Tree           :
  number of runs   :          1
  nodes            :        176 (175 internal, 1 leaves)
  feasible leaves  :          0
  infeas. leaves   :          0
  objective leaves :          0
  nodes (total)    :        176 (175 internal, 1 leaves)
  nodes left       :        176
  max depth        :        173
  max depth (total):        173
  backtracks       :          1 (0.6%)
  early backtracks :          0 (0.0%)
  nodes exc. ref.  :          0 (0.0%)
  delayed cutoffs  :          0
  repropagations   :          1 (0 domain reductions, 0 cutoffs)
  avg switch length:       1.52
  switching time   :      24.24
Root Node          :
  First LP value   : +8.40000000000000e+01
  First LP Iters   :       8425 (606.09 Iter/sec)
  First LP Time    :      13.90
  Final Dual Bound : +8.40000000000002e+01
  Final Root Iters :       9923
  Root LP Estimate : +3.31386232659203e+03
Solution           :
  Solutions found  :          8 (7 improvements)
  First Solution   : +6.70840000000000e+04   (in run 1, after 1 nodes, 27.96 seconds, depth 234, found by <shiftandpropagate>)
  Gap First Sol.   :   infinite
  Gap Last Sol.    :   45241.67 %
  Primal Bound     : +3.80870000000000e+04   (in run 1, after 101 nodes, 1510.16 seconds, depth 100, found by <alns>)
  Dual Bound       : +8.40000000000002e+01
  Gap              :   45241.67 %
Integrals          :      Total       Avg%
  primal-dual      :  718541.02      99.80
  primal-ref       :          -          - (not evaluated)
  dual-ref         :          -          - (not evaluated)
written solution information to file <results/final_miplib_symretope_if_extended_generating_set_cpx_v802__settings_final_nopeek_norelabel_extend_norestarts__2__fastxgemm-n3r21s3t6.mps.gz.sol>
@04 1686663905
